single conv molq qok noenergy
cell
 30.67930  30.67900  30.67900 109.47100 109.47100 109.47100
fractional
Zn        0.2500000      0.1250000      0.3750000       2.0000000
Zn        0.2500000      0.1250000      0.8750000       2.0000000
Zn        0.2500000      0.6250000      0.3750000       2.0000000
Zn        0.2500000      0.6250000      0.8750000       2.0000000
Zn        0.7500000      0.1250000      0.3750000       2.0000000
Zn        0.7500000      0.1250000      0.8750000       2.0000000
Zn        0.7500000      0.6250000      0.3750000       2.0000000
Zn        0.7500000      0.6250000      0.8750000       2.0000000
Zn        0.2500000      0.3750000      0.1250000       2.0000000
Zn        0.2500000      0.3750000      0.6250000       2.0000000
Zn        0.2500000      0.8750000      0.1250000       2.0000000
Zn        0.2500000      0.8750000      0.6250000       2.0000000
Zn        0.7500000      0.3750000      0.1250000       2.0000000
Zn        0.7500000      0.3750000      0.6250000       2.0000000
Zn        0.7500000      0.8750000      0.1250000       2.0000000
Zn        0.7500000      0.8750000      0.6250000       2.0000000
Zn        0.3750000      0.2500000      0.1250000       2.0000000
Zn        0.3750000      0.2500000      0.6250000       2.0000000
Zn        0.3750000      0.7500000      0.1250000       2.0000000
Zn        0.3750000      0.7500000      0.6250000       2.0000000
Zn        0.8750000      0.2500000      0.1250000       2.0000000
Zn        0.8750000      0.2500000      0.6250000       2.0000000
Zn        0.8750000      0.7500000      0.1250000       2.0000000
Zn        0.8750000      0.7500000      0.6250000       2.0000000
Zn        0.1250000      0.3750000      0.2500000       2.0000000
Zn        0.1250000      0.3750000      0.7500000       2.0000000
Zn        0.1250000      0.8750000      0.2500000       2.0000000
Zn        0.1250000      0.8750000      0.7500000       2.0000000
Zn        0.6250000      0.3750000      0.2500000       2.0000000
Zn        0.6250000      0.3750000      0.7500000       2.0000000
Zn        0.6250000      0.8750000      0.2500000       2.0000000
Zn        0.6250000      0.8750000      0.7500000       2.0000000
Zn        0.1250000      0.2500000      0.3750000       2.0000000
Zn        0.1250000      0.2500000      0.8750000       2.0000000
Zn        0.1250000      0.7500000      0.3750000       2.0000000
Zn        0.1250000      0.7500000      0.8750000       2.0000000
Zn        0.6250000      0.2500000      0.3750000       2.0000000
Zn        0.6250000      0.2500000      0.8750000       2.0000000
Zn        0.6250000      0.7500000      0.3750000       2.0000000
Zn        0.6250000      0.7500000      0.8750000       2.0000000
Zn        0.3750000      0.1250000      0.2500000       2.0000000
Zn        0.3750000      0.1250000      0.7500000       2.0000000
Zn        0.3750000      0.6250000      0.2500000       2.0000000
Zn        0.3750000      0.6250000      0.7500000       2.0000000
Zn        0.8750000      0.1250000      0.2500000       2.0000000
Zn        0.8750000      0.1250000      0.7500000       2.0000000
Zn        0.8750000      0.6250000      0.2500000       2.0000000
Zn        0.8750000      0.6250000      0.7500000       2.0000000
C1        0.1964722      0.5004730      0.3039093       0.0810000
N1        0.1581573      0.4549103      0.2951126      -0.5610000
N1        0.2027283      0.5452576      0.3408279      -0.5610000
C2        0.1390915      0.4719009      0.3284073      -0.1540000
C2        0.1662369      0.5269394      0.3562622      -0.1540000
H1        0.2195206      0.5010300      0.2836914       0.1070000
H2        0.1621475      0.5541687      0.3858032       0.1210000
H2        0.1077194      0.4438171      0.3299637       0.1210000
C1        0.1964722      0.5004730      0.8039093       0.0810000
N1        0.1581573      0.4549103      0.7951126      -0.5610000
N1        0.2027283      0.5452576      0.8408279      -0.5610000
C2        0.1390915      0.4719009      0.8284073      -0.1540000
C2        0.1662369      0.5269394      0.8562622      -0.1540000
H1        0.2195206      0.5010300      0.7836914       0.1070000
H2        0.1621475      0.5541687      0.8858032       0.1210000
H2        0.1077194      0.4438171      0.8299637       0.1210000
C1        0.1964722      0.0004730      0.3039093       0.0810000
N1        0.1581573      0.9549103      0.2951126      -0.5610000
N1        0.2027283      0.0452576      0.3408279      -0.5610000
C2        0.1390915      0.9719009      0.3284073      -0.1540000
C2        0.1662369      0.0269394      0.3562622      -0.1540000
H1        0.2195206      0.0010300      0.2836914       0.1070000
H2        0.1621475      0.0541687      0.3858032       0.1210000
H2        0.1077194      0.9438171      0.3299637       0.1210000
C1        0.1964722      0.0004730      0.8039093       0.0810000
N1        0.1581573      0.9549103      0.7951126      -0.5610000
N1        0.2027283      0.0452576      0.8408279      -0.5610000
C2        0.1390915      0.9719009      0.8284073      -0.1540000
C2        0.1662369      0.0269394      0.8562622      -0.1540000
H1        0.2195206      0.0010300      0.7836914       0.1070000
H2        0.1621475      0.0541687      0.8858032       0.1210000
H2        0.1077194      0.9438171      0.8299637       0.1210000
C1        0.6964722      0.5004730      0.3039093       0.0810000
N1        0.6581573      0.4549103      0.2951126      -0.5610000
N1        0.7027283      0.5452576      0.3408279      -0.5610000
C2        0.6390915      0.4719009      0.3284073      -0.1540000
C2        0.6662369      0.5269394      0.3562622      -0.1540000
H1        0.7195206      0.5010300      0.2836914       0.1070000
H2        0.6621475      0.5541687      0.3858032       0.1210000
H2        0.6077194      0.4438171      0.3299637       0.1210000
C1        0.6964722      0.5004730      0.8039093       0.0810000
N1        0.6581573      0.4549103      0.7951126      -0.5610000
N1        0.7027283      0.5452576      0.8408279      -0.5610000
C2        0.6390915      0.4719009      0.8284073      -0.1540000
C2        0.6662369      0.5269394      0.8562622      -0.1540000
H1        0.7195206      0.5010300      0.7836914       0.1070000
H2        0.6621475      0.5541687      0.8858032       0.1210000
H2        0.6077194      0.4438171      0.8299637       0.1210000
C1        0.6964722      0.0004730      0.3039093       0.0810000
N1        0.6581573      0.9549103      0.2951126      -0.5610000
N1        0.7027283      0.0452576      0.3408279      -0.5610000
C2        0.6390915      0.9719009      0.3284073      -0.1540000
C2        0.6662369      0.0269394      0.3562622      -0.1540000
H1        0.7195206      0.0010300      0.2836914       0.1070000
H2        0.6621475      0.0541687      0.3858032       0.1210000
H2        0.6077194      0.9438171      0.3299637       0.1210000
C1        0.6964722      0.0004730      0.8039093       0.0810000
N1        0.6581573      0.9549103      0.7951126      -0.5610000
N1        0.7027283      0.0452576      0.8408279      -0.5610000
C2        0.6390915      0.9719009      0.8284073      -0.1540000
C2        0.6662369      0.0269394      0.8562622      -0.1540000
H1        0.7195206      0.0010300      0.7836914       0.1070000
H2        0.6621475      0.0541687      0.8858032       0.1210000
H2        0.6077194      0.9438171      0.8299637       0.1210000
C1        0.1964569      0.3927231      0.1959991       0.0810000
N1        0.1598969      0.3632202      0.2049866      -0.5610000
N1        0.2045288      0.3620605      0.1592789      -0.5610000
C2        0.1439438      0.3108673      0.1720428      -0.1540000
C2        0.1711273      0.3101730      0.1442032      -0.1540000
H1        0.2169418      0.4359665      0.2159195       0.1070000
H2        0.1690369      0.2765579      0.1148834       0.1210000
H2        0.1145325      0.2779617      0.1707077       0.1210000
C1        0.1964569      0.3927231      0.6959991       0.0810000
N1        0.1598969      0.3632202      0.7049866      -0.5610000
N1        0.2045288      0.3620605      0.6592789      -0.5610000
C2        0.1439438      0.3108673      0.6720428      -0.1540000
C2        0.1711273      0.3101730      0.6442032      -0.1540000
H1        0.2169418      0.4359665      0.7159195       0.1070000
H2        0.1690369      0.2765579      0.6148834       0.1210000
H2        0.1145325      0.2779617      0.6707077       0.1210000
C1        0.1964569      0.8927231      0.1959991       0.0810000
N1        0.1598969      0.8632202      0.2049866      -0.5610000
N1        0.2045288      0.8620605      0.1592789      -0.5610000
C2        0.1439438      0.8108673      0.1720428      -0.1540000
C2        0.1711273      0.8101730      0.1442032      -0.1540000
H1        0.2169418      0.9359665      0.2159195       0.1070000
H2        0.1690369      0.7765579      0.1148834       0.1210000
H2        0.1145325      0.7779617      0.1707077       0.1210000
C1        0.1964569      0.8927231      0.6959991       0.0810000
N1        0.1598969      0.8632202      0.7049866      -0.5610000
N1        0.2045288      0.8620605      0.6592789      -0.5610000
C2        0.1439438      0.8108673      0.6720428      -0.1540000
C2        0.1711273      0.8101730      0.6442032      -0.1540000
H1        0.2169418      0.9359665      0.7159195       0.1070000
H2        0.1690369      0.7765579      0.6148834       0.1210000
H2        0.1145325      0.7779617      0.6707077       0.1210000
C1        0.6964569      0.3927231      0.1959991       0.0810000
N1        0.6598969      0.3632202      0.2049866      -0.5610000
N1        0.7045288      0.3620605      0.1592789      -0.5610000
C2        0.6439362      0.3108673      0.1720428      -0.1540000
C2        0.6711273      0.3101730      0.1442032      -0.1540000
H1        0.7169418      0.4359665      0.2159195       0.1070000
H2        0.6690369      0.2765579      0.1148834       0.1210000
H2        0.6145325      0.2779617      0.1707077       0.1210000
C1        0.6964569      0.3927231      0.6959991       0.0810000
N1        0.6598969      0.3632202      0.7049866      -0.5610000
N1        0.7045288      0.3620605      0.6592789      -0.5610000
C2        0.6439362      0.3108673      0.6720428      -0.1540000
C2        0.6711273      0.3101730      0.6442032      -0.1540000
H1        0.7169418      0.4359665      0.7159195       0.1070000
H2        0.6690369      0.2765579      0.6148834       0.1210000
H2        0.6145325      0.2779617      0.6707077       0.1210000
C1        0.6964569      0.8927231      0.1959991       0.0810000
N1        0.6598969      0.8632202      0.2049866      -0.5610000
N1        0.7045288      0.8620605      0.1592789      -0.5610000
C2        0.6439362      0.8108673      0.1720428      -0.1540000
C2        0.6711273      0.8101730      0.1442032      -0.1540000
H1        0.7169418      0.9359665      0.2159195       0.1070000
H2        0.6690369      0.7765579      0.1148834       0.1210000
H2        0.6145325      0.7779617      0.1707077       0.1210000
C1        0.6964569      0.8927231      0.6959991       0.0810000
N1        0.6598969      0.8632202      0.7049866      -0.5610000
N1        0.7045288      0.8620605      0.6592789      -0.5610000
C2        0.6439362      0.8108673      0.6720428      -0.1540000
C2        0.6711273      0.8101730      0.6442032      -0.1540000
H1        0.7169418      0.9359665      0.7159195       0.1070000
H2        0.6690369      0.7765579      0.6148834       0.1210000
H2        0.6145325      0.7779617      0.6707077       0.1210000
C1        0.3035431      0.1074600      0.3040085       0.0810000
N1        0.3417664      0.1369705      0.2966690      -0.5610000
N1        0.2972031      0.1381302      0.3424606      -0.5610000
C2        0.3607025      0.1893463      0.3325882      -0.1540000
C2        0.3335495      0.1900482      0.3604813      -0.1540000
H1        0.2806015      0.0641785      0.2816162       0.1070000
H2        0.3375397      0.2236862      0.3916931       0.1210000
H2        0.3919678      0.2222672      0.3357773       0.1210000
C1        0.3035431      0.1074600      0.8040085       0.0810000
N1        0.3417664      0.1369705      0.7966690      -0.5610000
N1        0.2972031      0.1381302      0.8424606      -0.5610000
C2        0.3607025      0.1893463      0.8325882      -0.1540000
C2        0.3335495      0.1900482      0.8604813      -0.1540000
H1        0.2806015      0.0641785      0.7816162       0.1070000
H2        0.3375397      0.2236862      0.8916931       0.1210000
H2        0.3919678      0.2222672      0.8357773       0.1210000
C1        0.3035431      0.6074600      0.3040085       0.0810000
N1        0.3417664      0.6369705      0.2966690      -0.5610000
N1        0.2972031      0.6381302      0.3424606      -0.5610000
C2        0.3607025      0.6893463      0.3325882      -0.1540000
C2        0.3335495      0.6900482      0.3604813      -0.1540000
H1        0.2806015      0.5641785      0.2816162       0.1070000
H2        0.3375397      0.7236862      0.3916931       0.1210000
H2        0.3919678      0.7222672      0.3357773       0.1210000
C1        0.3035431      0.6074600      0.8040085       0.0810000
N1        0.3417664      0.6369705      0.7966690      -0.5610000
N1        0.2972031      0.6381302      0.8424606      -0.5610000
C2        0.3607025      0.6893463      0.8325882      -0.1540000
C2        0.3335495      0.6900482      0.8604813      -0.1540000
H1        0.2806015      0.5641785      0.7816162       0.1070000
H2        0.3375397      0.7236862      0.8916931       0.1210000
H2        0.3919678      0.7222672      0.8357773       0.1210000
C1        0.8035431      0.1074600      0.3040085       0.0810000
N1        0.8417664      0.1369705      0.2966690      -0.5610000
N1        0.7972031      0.1381302      0.3424606      -0.5610000
C2        0.8607025      0.1893463      0.3325882      -0.1540000
C2        0.8335495      0.1900482      0.3604813      -0.1540000
H1        0.7806015      0.0641785      0.2816162       0.1070000
H2        0.8375397      0.2236862      0.3916931       0.1210000
H2        0.8919678      0.2222672      0.3357773       0.1210000
C1        0.8035431      0.1074600      0.8040085       0.0810000
N1        0.8417664      0.1369705      0.7966690      -0.5610000
N1        0.7972031      0.1381302      0.8424606      -0.5610000
C2        0.8607025      0.1893463      0.8325882      -0.1540000
C2        0.8335495      0.1900482      0.8604813      -0.1540000
H1        0.7806015      0.0641785      0.7816162       0.1070000
H2        0.8375397      0.2236862      0.8916931       0.1210000
H2        0.8919678      0.2222672      0.8357773       0.1210000
C1        0.8035431      0.6074600      0.3040085       0.0810000
N1        0.8417664      0.6369705      0.2966690      -0.5610000
N1        0.7972031      0.6381302      0.3424606      -0.5610000
C2        0.8607025      0.6893463      0.3325882      -0.1540000
C2        0.8335495      0.6900482      0.3604813      -0.1540000
H1        0.7806015      0.5641785      0.2816162       0.1070000
H2        0.8375397      0.7236862      0.3916931       0.1210000
H2        0.8919678      0.7222672      0.3357773       0.1210000
C1        0.8035431      0.6074600      0.8040085       0.0810000
N1        0.8417664      0.6369705      0.7966690      -0.5610000
N1        0.7972031      0.6381302      0.8424606      -0.5610000
C2        0.8607025      0.6893463      0.8325882      -0.1540000
C2        0.8335495      0.6900482      0.8604813      -0.1540000
H1        0.7806015      0.5641785      0.7816162       0.1070000
H2        0.8375397      0.7236862      0.8916931       0.1210000
H2        0.8919678      0.7222672      0.8357773       0.1210000
C1        0.3034515      0.9995270      0.1960297       0.0810000
N1        0.3401871      0.0450897      0.2032700      -0.5610000
N1        0.2955704      0.9547424      0.1574783      -0.5610000
C2        0.3564835      0.0281067      0.1671906      -0.1540000
C2        0.3292999      0.9730682      0.1392975      -0.1540000
H1        0.2826996      0.9989700      0.2185516       0.1070000
H2        0.3315964      0.9458389      0.1079712       0.1210000
H2        0.3861084      0.0561905      0.1638870       0.1210000
C1        0.3034515      0.9995270      0.6960297       0.0810000
N1        0.3401871      0.0450897      0.7032700      -0.5610000
N1        0.2955704      0.9547424      0.6574783      -0.5610000
C2        0.3564835      0.0281067      0.6671906      -0.1540000
C2        0.3292999      0.9730682      0.6392975      -0.1540000
H1        0.2826996      0.9989700      0.7185516       0.1070000
H2        0.3315964      0.9458389      0.6079712       0.1210000
H2        0.3861084      0.0561905      0.6638870       0.1210000
C1        0.3034515      0.4995270      0.1960297       0.0810000
N1        0.3401871      0.5450897      0.2032700      -0.5610000
N1        0.2955704      0.4547424      0.1574783      -0.5610000
C2        0.3564835      0.5281067      0.1671906      -0.1540000
C2        0.3292999      0.4730682      0.1392975      -0.1540000
H1        0.2826996      0.4989700      0.2185516       0.1070000
H2        0.3315964      0.4458389      0.1079712       0.1210000
H2        0.3861084      0.5561905      0.1638870       0.1210000
C1        0.3034515      0.4995270      0.6960297       0.0810000
N1        0.3401871      0.5450897      0.7032700      -0.5610000
N1        0.2955704      0.4547424      0.6574783      -0.5610000
C2        0.3564835      0.5281067      0.6671906      -0.1540000
C2        0.3292999      0.4730682      0.6392975      -0.1540000
H1        0.2826996      0.4989700      0.7185516       0.1070000
H2        0.3315964      0.4458389      0.6079712       0.1210000
H2        0.3861084      0.5561905      0.6638870       0.1210000
C1        0.8034515      0.9995270      0.1960297       0.0810000
N1        0.8401871      0.0450897      0.2032700      -0.5610000
N1        0.7955704      0.9547424      0.1574783      -0.5610000
C2        0.8564835      0.0281067      0.1671906      -0.1540000
C2        0.8292999      0.9730682      0.1392975      -0.1540000
H1        0.7826996      0.9989700      0.2185516       0.1070000
H2        0.8315964      0.9458389      0.1079712       0.1210000
H2        0.8861084      0.0561905      0.1638870       0.1210000
C1        0.8034515      0.9995270      0.6960297       0.0810000
N1        0.8401871      0.0450897      0.7032700      -0.5610000
N1        0.7955704      0.9547424      0.6574783      -0.5610000
C2        0.8564835      0.0281067      0.6671906      -0.1540000
C2        0.8292999      0.9730682      0.6392975      -0.1540000
H1        0.7826996      0.9989700      0.7185516       0.1070000
H2        0.8315964      0.9458389      0.6079712       0.1210000
H2        0.8861084      0.0561905      0.6638870       0.1210000
C1        0.8034515      0.4995270      0.1960297       0.0810000
N1        0.8401871      0.5450897      0.2032700      -0.5610000
N1        0.7955704      0.4547424      0.1574783      -0.5610000
C2        0.8564835      0.5281067      0.1671906      -0.1540000
C2        0.8292999      0.4730682      0.1392975      -0.1540000
H1        0.7826996      0.4989700      0.2185516       0.1070000
H2        0.8315964      0.4458389      0.1079712       0.1210000
H2        0.8861084      0.5561905      0.1638870       0.1210000
C1        0.8034515      0.4995270      0.6960297       0.0810000
N1        0.8401871      0.5450897      0.7032700      -0.5610000
N1        0.7955704      0.4547424      0.6574783      -0.5610000
C2        0.8564835      0.5281067      0.6671906      -0.1540000
C2        0.8292999      0.4730682      0.6392975      -0.1540000
H1        0.7826996      0.4989700      0.7185516       0.1070000
H2        0.8315964      0.4458389      0.6079712       0.1210000
H2        0.8861084      0.5561905      0.6638870       0.1210000
C1        0.3033371      0.1959305      0.4995270       0.0810000
N1        0.3417511      0.2048264      0.5450897      -0.5610000
N1        0.2971573      0.1591034      0.4547424      -0.5610000
C2        0.3609695      0.1716919      0.5280914      -0.1540000
C2        0.3338089      0.1438293      0.4730606      -0.1540000
H1        0.2801590      0.2160110      0.4989777       0.1070000
H2        0.3379898      0.1143875      0.4458237       0.1210000
H2        0.3924484      0.1702499      0.5561676       0.1210000
C1        0.3033371      0.1959305      0.9995270       0.0810000
N1        0.3417511      0.2048264      0.0450897      -0.5610000
N1        0.2971573      0.1591034      0.9547424      -0.5610000
C2        0.3609695      0.1716919      0.0280914      -0.1540000
C2        0.3338089      0.1438293      0.9730606      -0.1540000
H1        0.2801590      0.2160110      0.9989777       0.1070000
H2        0.3379898      0.1143875      0.9458237       0.1210000
H2        0.3924484      0.1702499      0.0561676       0.1210000
C1        0.3033371      0.6959305      0.4995270       0.0810000
N1        0.3417511      0.7048264      0.5450897      -0.5610000
N1        0.2971573      0.6591034      0.4547424      -0.5610000
C2        0.3609695      0.6716919      0.5280914      -0.1540000
C2        0.3338089      0.6438293      0.4730606      -0.1540000
H1        0.2801590      0.7160110      0.4989777       0.1070000
H2        0.3379898      0.6143875      0.4458237       0.1210000
H2        0.3924484      0.6702499      0.5561676       0.1210000
C1        0.3033371      0.6959305      0.9995270       0.0810000
N1        0.3417511      0.7048264      0.0450897      -0.5610000
N1        0.2971573      0.6591034      0.9547424      -0.5610000
C2        0.3609695      0.6716919      0.0280914      -0.1540000
C2        0.3338089      0.6438293      0.9730606      -0.1540000
H1        0.2801590      0.7160110      0.9989777       0.1070000
H2        0.3379898      0.6143875      0.9458237       0.1210000
H2        0.3924484      0.6702499      0.0561676       0.1210000
C1        0.8033371      0.1959305      0.4995270       0.0810000
N1        0.8417511      0.2048264      0.5450897      -0.5610000
N1        0.7971573      0.1591034      0.4547424      -0.5610000
C2        0.8609695      0.1716919      0.5280914      -0.1540000
C2        0.8338089      0.1438293      0.4730606      -0.1540000
H1        0.7801590      0.2160110      0.4989777       0.1070000
H2        0.8379898      0.1143875      0.4458237       0.1210000
H2        0.8924484      0.1702499      0.5561676       0.1210000
C1        0.8033371      0.1959305      0.9995270       0.0810000
N1        0.8417511      0.2048264      0.0450897      -0.5610000
N1        0.7971573      0.1591034      0.9547424      -0.5610000
C2        0.8609695      0.1716919      0.0280914      -0.1540000
C2        0.8338089      0.1438293      0.9730606      -0.1540000
H1        0.7801590      0.2160110      0.9989777       0.1070000
H2        0.8379898      0.1143875      0.9458237       0.1210000
H2        0.8924484      0.1702499      0.0561676       0.1210000
C1        0.8033371      0.6959305      0.4995270       0.0810000
N1        0.8417511      0.7048264      0.5450897      -0.5610000
N1        0.7971573      0.6591034      0.4547424      -0.5610000
C2        0.8609695      0.6716919      0.5280914      -0.1540000
C2        0.8338089      0.6438293      0.4730606      -0.1540000
H1        0.7801590      0.7160110      0.4989777       0.1070000
H2        0.8379898      0.6143875      0.4458237       0.1210000
H2        0.8924484      0.6702499      0.5561676       0.1210000
C1        0.8033371      0.6959305      0.9995270       0.0810000
N1        0.8417511      0.7048264      0.0450897      -0.5610000
N1        0.7971573      0.6591034      0.9547424      -0.5610000
C2        0.8609695      0.6716919      0.0280914      -0.1540000
C2        0.8338089      0.6438293      0.9730606      -0.1540000
H1        0.7801590      0.7160110      0.9989777       0.1070000
H2        0.8379898      0.6143875      0.9458237       0.1210000
H2        0.8924484      0.6702499      0.0561676       0.1210000
C1        0.4995270      0.3033981      0.1959305       0.0810000
N1        0.5450897      0.3413925      0.2043991      -0.5610000
N1        0.4547424      0.2968597      0.1586990      -0.5610000
C2        0.5281067      0.3599319      0.1705475      -0.1540000
C2        0.4730835      0.3328094      0.1427078      -0.1540000
H1        0.4989700      0.2807999      0.2166138       0.1070000
H2        0.4458466      0.3365707      0.1128235       0.1210000
H2        0.5561981      0.3909607      0.1686325       0.1210000
C1        0.4995270      0.3033981      0.6959305       0.0810000
N1        0.5450897      0.3413925      0.7043991      -0.5610000
N1        0.4547424      0.2968597      0.6586990      -0.5610000
C2        0.5281067      0.3599319      0.6705475      -0.1540000
C2        0.4730835      0.3328094      0.6427078      -0.1540000
H1        0.4989700      0.2807999      0.7166138       0.1070000
H2        0.4458466      0.3365707      0.6128235       0.1210000
H2        0.5561981      0.3909607      0.6686325       0.1210000
C1        0.4995270      0.8033981      0.1959305       0.0810000
N1        0.5450897      0.8413925      0.2043991      -0.5610000
N1        0.4547424      0.7968597      0.1586990      -0.5610000
C2        0.5281067      0.8599319      0.1705475      -0.1540000
C2        0.4730835      0.8328094      0.1427078      -0.1540000
H1        0.4989700      0.7807999      0.2166138       0.1070000
H2        0.4458466      0.8365707      0.1128235       0.1210000
H2        0.5561981      0.8909607      0.1686325       0.1210000
C1        0.4995270      0.8033981      0.6959305       0.0810000
N1        0.5450897      0.8413925      0.7043991      -0.5610000
N1        0.4547424      0.7968597      0.6586990      -0.5610000
C2        0.5281067      0.8599319      0.6705475      -0.1540000
C2        0.4730835      0.8328094      0.6427078      -0.1540000
H1        0.4989700      0.7807999      0.7166138       0.1070000
H2        0.4458466      0.8365707      0.6128235       0.1210000
H2        0.5561981      0.8909607      0.6686325       0.1210000
C1        0.9995270      0.3033981      0.1959305       0.0810000
N1        0.0450897      0.3413925      0.2043991      -0.5610000
N1        0.9547424      0.2968597      0.1586990      -0.5610000
C2        0.0281067      0.3599319      0.1705475      -0.1540000
C2        0.9730835      0.3328094      0.1427078      -0.1540000
H1        0.9989700      0.2807999      0.2166138       0.1070000
H2        0.9458466      0.3365707      0.1128235       0.1210000
H2        0.0561981      0.3909607      0.1686325       0.1210000
C1        0.9995270      0.3033981      0.6959305       0.0810000
N1        0.0450897      0.3413925      0.7043991      -0.5610000
N1        0.9547424      0.2968597      0.6586990      -0.5610000
C2        0.0281067      0.3599319      0.6705475      -0.1540000
C2        0.9730835      0.3328094      0.6427078      -0.1540000
H1        0.9989700      0.2807999      0.7166138       0.1070000
H2        0.9458466      0.3365707      0.6128235       0.1210000
H2        0.0561981      0.3909607      0.6686325       0.1210000
C1        0.9995270      0.8033981      0.1959305       0.0810000
N1        0.0450897      0.8413925      0.2043991      -0.5610000
N1        0.9547424      0.7968597      0.1586990      -0.5610000
C2        0.0281067      0.8599319      0.1705475      -0.1540000
C2        0.9730835      0.8328094      0.1427078      -0.1540000
H1        0.9989700      0.7807999      0.2166138       0.1070000
H2        0.9458466      0.8365707      0.1128235       0.1210000
H2        0.0561981      0.8909607      0.1686325       0.1210000
C1        0.9995270      0.8033981      0.6959305       0.0810000
N1        0.0450897      0.8413925      0.7043991      -0.5610000
N1        0.9547424      0.7968597      0.6586990      -0.5610000
C2        0.0281067      0.8599319      0.6705475      -0.1540000
C2        0.9730835      0.8328094      0.6427078      -0.1540000
H1        0.9989700      0.7807999      0.7166138       0.1070000
H2        0.9458466      0.8365707      0.6128235       0.1210000
H2        0.0561981      0.8909607      0.6686325       0.1210000
C1        0.1965790      0.3040314      0.0004730       0.0810000
N1        0.1596375      0.2966080      0.9549103      -0.5610000
N1        0.2042465      0.3423615      0.0452728      -0.5610000
C2        0.1429901      0.3323364      0.9719086      -0.1540000
C2        0.1701584      0.3602066      0.0269470      -0.1540000
H1        0.2176285      0.2817993      0.0010223       0.1070000
H2        0.1676331      0.3913193      0.0541763       0.1210000
H2        0.1131363      0.3354263      0.9438324       0.1210000
C1        0.1965790      0.3040314      0.5004730       0.0810000
N1        0.1596375      0.2966080      0.4549103      -0.5610000
N1        0.2042465      0.3423615      0.5452728      -0.5610000
C2        0.1429901      0.3323364      0.4719086      -0.1540000
C2        0.1701584      0.3602066      0.5269470      -0.1540000
H1        0.2176285      0.2817993      0.5010223       0.1070000
H2        0.1676331      0.3913193      0.5541763       0.1210000
H2        0.1131363      0.3354263      0.4438324       0.1210000
C1        0.1965790      0.8040314      0.0004730       0.0810000
N1        0.1596375      0.7966080      0.9549103      -0.5610000
N1        0.2042465      0.8423615      0.0452728      -0.5610000
C2        0.1429901      0.8323364      0.9719086      -0.1540000