single conv molq qok noenergy
cell
 32.55400  32.55400  32.55400  90.00000  90.00000  90.00000
fractional
Zn        0.6335220      0.7613068      0.5094528       0.6918000
Zn        0.8835373      0.5112915      0.7594681       0.6918000
Zn        0.6335220      0.5112915      0.7594681       0.6918000
Zn        0.8835373      0.7613068      0.5094528       0.6918000
Zn        0.5085297      0.6362839      0.7594681       0.6918000
Zn        0.7585449      0.8862991      0.5094528       0.6918000
Zn        0.7585449      0.5112915      0.6344452       0.6918000
Zn        0.5085297      0.7613068      0.8844604       0.6918000
Zn        0.7585449      0.6362839      0.5094528       0.6918000
Zn        0.5085297      0.8862991      0.7594681       0.6918000
Zn        0.5085297      0.7613068      0.6344452       0.6918000
Zn        0.7585449      0.5112915      0.8844604       0.6918000
C1        0.8235397      0.9949188      0.6944427       0.4291000
N1        0.8105469      0.5112915      0.6582870      -0.3879000
N1        0.8596954      0.5112915      0.7074356      -0.3879000
C2        0.8402176      0.5396729      0.6478119      -0.0839000
C2        0.8701706      0.5396729      0.6777573      -0.0839000
C3        0.8006592      0.9625397      0.7173233      -0.4526000
H2        0.8980331      0.5578003      0.6800003       0.1128000
H2        0.8379822      0.5578003      0.6199493       0.1128000
H3        0.7782898      0.9776230      0.7396851       0.1310000
H3        0.7828369      0.9426041      0.6946869       0.1310000
H3        0.8232956      0.9426041      0.7351379       0.1310000
C1        0.5769348      0.7412186      0.9410477       0.4291000
N1        0.5605316      0.7613068      0.9082718      -0.3879000
N1        0.6097107      0.7613068      0.9574509      -0.3879000
C2        0.5843353      0.7960815      0.9036942      -0.0839000
C2        0.6142883      0.7960815      0.9336395      -0.0839000
C3        0.5607452      0.7015915      0.9572372      -0.4526000
H2        0.6384048      0.8182602      0.9396362       0.1128000
H2        0.5783463      0.8182602      0.8795776       0.1128000
H3        0.5363846      0.7079773      0.9815903       0.1310000
H3        0.5465240      0.6832199      0.9310303       0.1310000
H3        0.5869522      0.6832199      0.9714890       0.1310000
C1        0.6935120      0.5276642      0.6944427       0.4291000
N1        0.7065048      0.5112915      0.6582870      -0.3879000
N1        0.6573563      0.5112915      0.7074356      -0.3879000
C2        0.6768341      0.9829102      0.6478119      -0.0839000
C2        0.6468811      0.9829102      0.6777573      -0.0839000
C3        0.7163925      0.5600433      0.7173233      -0.4526000
H2        0.6190186      0.9647827      0.6800003       0.1128000
H2        0.6790771      0.9647827      0.6199493       0.1128000
H3        0.7387619      0.5449600      0.7396851       0.1310000
H3        0.7342148      0.5799789      0.6946869       0.1310000
H3        0.6937561      0.5799789      0.7351379       0.1310000
C1        0.9401169      0.7412186      0.9410477       0.4291000
N1        0.9565201      0.7613068      0.9082718      -0.3879000
N1        0.9073410      0.7613068      0.9574509      -0.3879000
C2        0.9327164      0.7960815      0.9036942      -0.0839000
C2        0.9027634      0.7960815      0.9336395      -0.0839000
C3        0.9563065      0.7015915      0.9572372      -0.4526000
H2        0.8786469      0.8182602      0.9396362       0.1128000
H2        0.9387054      0.8182602      0.8795776       0.1128000
H3        0.9402084      0.6749573      0.9411392       0.1310000
H3        0.9907684      0.6997452      0.9512405       0.1310000
H3        0.9503174      0.6997452      0.9916992       0.1310000
C1        0.5692902      0.7552872      0.5702133       0.4291000
N1        0.5605316      0.7613068      0.6106415      -0.3879000
N1        0.6097107      0.7613068      0.5614624      -0.3879000
C2        0.5975800      0.7716904      0.6284561      -0.0839000
C2        0.6275253      0.7716904      0.5985107      -0.0839000
C3        0.5380478      0.7434616      0.5389786      -0.4526000
H2        0.6600571      0.7783279      0.6009674       0.1128000
H2        0.6000366      0.7783279      0.6609879       0.1128000
H3        0.5361099      0.7085342      0.5370407       0.1310000
H3        0.0068359      0.7563629      0.5481873       0.1310000
H3        0.5472641      0.7563629      0.0077667       0.1310000
C1        0.8209305      0.5228729      0.8218613       0.4291000
N1        0.8105469      0.5112915      0.8606262      -0.3879000
N1        0.8596954      0.5112915      0.8114777      -0.3879000
C2        0.8447342      0.9912338      0.8756180      -0.0839000
C2        0.8746872      0.9912338      0.8456650      -0.0839000
C3        0.7929153      0.5457535      0.7938461      -0.4526000
H2        0.9054337      0.9783936      0.8463135       0.1128000
H2        0.8453827      0.9783936      0.9063644       0.1128000
H3        0.7740860      0.5229950      0.7750168       0.1310000
H3        0.7713852      0.5659103      0.8127365       0.1310000
H3        0.8118057      0.5659103      0.7723083       0.1310000
C1        0.9435272      0.7776794      0.5744553       0.4291000
N1        0.9565201      0.7613068      0.6106415      -0.3879000
N1        0.9073410      0.7613068      0.5614624      -0.3879000
C2        0.9268188      0.7328949      0.6211166      -0.0839000
C2        0.8968964      0.7328949      0.5911636      -0.0839000
C3        0.9664078      0.8100586      0.5515671      -0.4526000
H2        0.8690033      0.7147675      0.5889206       0.1128000
H2        0.9290619      0.7147675      0.6489792       0.1128000
H3        0.9557190      0.8416367      0.5622635       0.1310000
H3        0.0007248      0.8066177      0.5577164       0.1310000
H3        0.9602661      0.8066177      0.5172577       0.1310000
C1        0.6935120      0.9949188      0.8244705       0.4291000
N1        0.7065048      0.5112915      0.8606262      -0.3879000
N1        0.6573563      0.5112915      0.8114777      -0.3879000
C2        0.6768341      0.5396729      0.8711014      -0.0839000
C2        0.6468811      0.5396729      0.8411484      -0.0839000
C3        0.7163925      0.9625397      0.8015823      -0.4526000
H2        0.6190186      0.5578003      0.8389053       0.1128000
H2        0.6790771      0.5578003      0.8989639       0.1128000
H3        0.7387619      0.9776230      0.7792206       0.1310000
H3        0.7342148      0.9426041      0.8242264       0.1310000
H3        0.6937561      0.9426041      0.7837677       0.1310000
C1        0.6961212      0.8236923      0.5210342       0.4291000
N1        0.7065048      0.8624649      0.5094528      -0.3879000
N1        0.6573563      0.8133087      0.5094528      -0.3879000
C2        0.6723175      0.8774490      0.9893951      -0.0839000
C2        0.6423645      0.8475037      0.9893951      -0.0839000
C3        0.7241364      0.7956772      0.5439224      -0.4526000
H2        0.6116180      0.8481445      0.9765549       0.1128000
H2        0.6716690      0.9082031      0.9765549       0.1128000
H3        0.7429657      0.7768478      0.5211563       0.1310000
H3        0.7456741      0.8145752      0.5640717       0.1310000
H3        0.7052460      0.7741470      0.5640717       0.1310000
C1        0.9461365      0.5737076      0.7478561       0.4291000
N1        0.9565201      0.6124802      0.7594681      -0.3879000
N1        0.9073410      0.5632935      0.7594681      -0.3879000
C2        0.9223022      0.6274338      0.7795258      -0.0839000
C2        0.8923798      0.5975189      0.7795258      -0.0839000
C3        0.9741516      0.5456619      0.7249756      -0.4526000
H2        0.8616333      0.5981293      0.7923355       0.1128000
H2        0.9216843      0.6581879      0.7923355       0.1128000
H3        0.9696350      0.5501785      0.6905670       0.1310000
H3        0.0073624      0.5529175      0.7334518       0.1310000
H3        0.9669342      0.5124588      0.7334518       0.1310000
C1        0.5285873      0.6928940      0.8278503       0.4291000
N1        0.5085297      0.7092667      0.8606262      -0.3879000
N1        0.5085297      0.6601181      0.8114777      -0.3879000
C2        0.9737549      0.6854630      0.8652344      -0.0839000
C2        0.9737549      0.6555099      0.8352814      -0.0839000
C3        0.5682449      0.7090836      0.8116913      -0.4526000
H2        0.9515762      0.6314316      0.8292923       0.1128000
H2        0.9515762      0.6914520      0.8893433       0.1128000
H3        0.5618210      0.7334137      0.7873306       0.1310000
H3        0.5866089      0.7233047      0.8378601       0.1310000
H3        0.5866089      0.6828842      0.7974396       0.1310000
C1        0.7421417      0.9462891      0.5744553       0.4291000
N1        0.7585449      0.9592819      0.6106415      -0.3879000
N1        0.7585449      0.9101028      0.5614624      -0.3879000
C2        0.7869263      0.9295807      0.6211166      -0.0839000
C2        0.7869263      0.8996582      0.5911636      -0.0839000
C3        0.7097931      0.9691772      0.5515671      -0.4526000
H2        0.8050461      0.8717728      0.5889206       0.1128000
H2        0.8050461      0.9318237      0.6489792       0.1128000
H3        0.6781845      0.9584885      0.5622635       0.1310000
H3        0.7132034      0.0034866      0.5577164       0.1310000
H3        0.7132034      0.9630356      0.5172577       0.1310000
C1        0.5735245      0.9462891      0.7430649       0.4291000
N1        0.5605316      0.9101028      0.7594681      -0.3879000
N1        0.6097107      0.9592819      0.7594681      -0.3879000
C2        0.5902328      0.8996582      0.7878571      -0.0839000
C2        0.6201859      0.9295807      0.7878571      -0.0839000
C3        0.5506439      0.9691772      0.7107239      -0.4526000
H2        0.6480484      0.9318237      0.8059769       0.1128000
H2        0.5879974      0.8717728      0.8059769       0.1128000
H3        0.5613327      0.9584885      0.6791153       0.1310000
H3        0.5163269      0.9630356      0.7141342       0.1310000
H3        0.5567856      0.0034866      0.7141342       0.1310000
C1        0.8235397      0.6962738      0.5258255       0.4291000
N1        0.8105469      0.6601181      0.5094528      -0.3879000
N1        0.8596954      0.7092667      0.5094528      -0.3879000
C2        0.8402176      0.6496429      0.9810715      -0.0839000
C2        0.8701706      0.6795959      0.9810715      -0.0839000
C3        0.8006592      0.7191620      0.5582047      -0.4526000
H2        0.8980331      0.6818390      0.9629440       0.1128000
H2        0.8379822      0.6217880      0.9629440       0.1128000
H3        0.7782898      0.7415237      0.5431213       0.1310000
H3        0.7828369      0.6965256      0.5781403       0.1310000
H3        0.8232956      0.7369766      0.5781403       0.1310000
C1        0.5145187      0.7005157      0.6986771       0.4291000
N1        0.5085297      0.7092667      0.6582870      -0.3879000
N1        0.5085297      0.6601181      0.7074356      -0.3879000
C2        0.9981461      0.6722565      0.6404648      -0.0839000
C2        0.9981461      0.6423035      0.6704178      -0.0839000
C3        0.5263748      0.7317886      0.7299500      -0.4526000
H2        0.9915085      0.6097412      0.6679611       0.1128000
H2        0.9915085      0.6697998      0.6079102       0.1128000
H3        0.5612717      0.7337189      0.7318878       0.1310000
H3        0.5134430      0.7629929      0.7207336       0.1310000
H3        0.5134430      0.7225723      0.7611618       0.1310000
C1        0.7749176      0.9462891      0.9444580       0.4291000
N1        0.7585449      0.9592819      0.9082718      -0.3879000
N1        0.7585449      0.9101028      0.9574509      -0.3879000
C2        0.7301254      0.9295807      0.8978271      -0.0839000
C2        0.7301254      0.8996582      0.9277420      -0.0839000
C3        0.8072891      0.9691772      0.9673386      -0.4526000
H2        0.7120056      0.8717728      0.9299850       0.1128000
H2        0.7120056      0.9318237      0.8699341       0.1128000
H3        0.8388672      0.9584885      0.9566498       0.1310000
H3        0.8038483      0.0034866      0.9611969       0.1310000
H3        0.8038483      0.9630356      0.0016556       0.1310000
C1        0.6935120      0.6962738      0.9930801       0.4291000
N1        0.7065048      0.6601181      0.5094528      -0.3879000
N1        0.6573563      0.7092667      0.5094528      -0.3879000
C2        0.6768341      0.6496429      0.5378418      -0.0839000
C2        0.6468811      0.6795959      0.5378418      -0.0839000
C3        0.7163925      0.7191620      0.9607086      -0.4526000
H2        0.6190186      0.6818390      0.5559616       0.1128000
H2        0.6790771      0.6217880      0.5559616       0.1128000
H3        0.7387619      0.7415237      0.9757843       0.1310000
H3        0.7342148      0.6965256      0.9407730       0.1310000
H3        0.6937561      0.7369766      0.9407730       0.1310000
C1        0.9401169      0.9428787      0.7795258       0.4291000
N1        0.9565201      0.9101028      0.7594681      -0.3879000
N1        0.9073410      0.9592819      0.7594681      -0.3879000
C2        0.9327164      0.9055252      0.7246704      -0.0839000
C2        0.9027634      0.9354782      0.7246704      -0.0839000
C3        0.9563065      0.9590683      0.8191528      -0.4526000
H2        0.8786469      0.9414673      0.7024918       0.1128000
H2        0.9387054      0.8814163      0.7024918       0.1128000
H3        0.9402084      0.9429703      0.8457870       0.1310000
H3        0.9907684      0.9530792      0.8210297       0.1310000
H3        0.9503174      0.9935379      0.8210297       0.1310000
C1        0.7749176      0.5762939      0.5744553       0.4291000
N1        0.7585449      0.6124802      0.5614624      -0.3879000
N1        0.7585449      0.5632935      0.6106415      -0.3879000
C2        0.7301254      0.6229553      0.5911636      -0.0839000
C2        0.7301254      0.5930023      0.6211166      -0.0839000
C3        0.8072891      0.5534058      0.5515671      -0.4526000
H2        0.7120056      0.5907593      0.6489792       0.1128000
H2        0.7120056      0.6508102      0.5889206       0.1128000
H3        0.7921753      0.5310745      0.5292358       0.1310000
H3        0.8271942      0.5760422      0.5337830       0.1310000
H3        0.8271942      0.5356216      0.5742111       0.1310000
C1        0.0025330      0.8220673      0.8202286       0.4291000
N1        0.5085297      0.8624649      0.8114777      -0.3879000
N1        0.5085297      0.8133087      0.8606262      -0.3879000
C2        0.5189056      0.8802795      0.8485260      -0.0839000
C2        0.5189056      0.8503571      0.8784409      -0.0839000
C3        0.9906769      0.7907944      0.7889633      -0.4526000
H2        0.5255432      0.8527832      0.9110031       0.1128000
H2        0.5255432      0.9128418      0.8509521       0.1128000
H3        0.9557800      0.7888641      0.7870255       0.1310000
H3        0.0036087      0.8000107      0.7577515       0.1310000
H3        0.0036087      0.7595901      0.7981720       0.1310000
C1        0.5735245      0.5762939      0.7758408       0.4291000
N1        0.5605316      0.6124802      0.7594681      -0.3879000
N1        0.6097107      0.5632935      0.7594681      -0.3879000
C2        0.5902328      0.6229553      0.7310562      -0.0839000
C2        0.6201859      0.5930023      0.7310562      -0.0839000
C3        0.5506439      0.5534058      0.8082199      -0.4526000
H2        0.6480484      0.5907593      0.7129288       0.1128000
H2        0.5879974      0.6508102      0.7129288       0.1128000
H3        0.5613327      0.5640945      0.8397980       0.1310000
H3        0.5163269      0.5595474      0.8047791       0.1310000
H3        0.5567856      0.5190964      0.8047791       0.1310000
C1        0.8235397      0.8263092      0.9930801       0.4291000
N1        0.8105469      0.8624649      0.5094528      -0.3879000
N1        0.8596954      0.8133087      0.5094528      -0.3879000
C2        0.8402176      0.8729401      0.5378418      -0.0839000
C2        0.8701706      0.8429871      0.5378418      -0.0839000
C3        0.8006592      0.8034210      0.9607086      -0.4526000
H2        0.8980331      0.8407440      0.5559616       0.1128000
H2        0.8379822      0.9007950      0.5559616       0.1128000
H3        0.7782898      0.7810593      0.9757843       0.1310000
H3        0.7828369      0.8260574      0.9407730       0.1310000
H3        0.8232956      0.7856064      0.9407730       0.1310000
C1        0.7421417      0.5762939      0.9444580       0.4291000
N1        0.7585449      0.5632935      0.9082718      -0.3879000
N1        0.7585449      0.6124802      0.9574509      -0.3879000
C2        0.7869263      0.5930023      0.8978271      -0.0839000
C2        0.7869263      0.6229553      0.9277420      -0.0839000
C3        0.7097931      0.5534058      0.9673386      -0.4526000
H2        0.8050461      0.6508102      0.9299850       0.1128000
H2        0.8050461      0.5907593      0.8699341       0.1128000
H3        0.6781845      0.5640945      0.9566498       0.1310000
H3        0.7132034      0.5190964      0.9611969       0.1310000
H3        0.7132034      0.5595474      0.0016556       0.1310000
C1        0.9884644      0.8296890      0.6910629       0.4291000
N1        0.5085297      0.8133087      0.6582870      -0.3879000
N1        0.5085297      0.8624649      0.7074356      -0.3879000
C2        0.5432968      0.8371201      0.6536789      -0.0839000
C2        0.5432968      0.8670731      0.6836243      -0.0839000
C3        0.9488068      0.8135300      0.7072525      -0.4526000
H2        0.5654755      0.8911819      0.6896210       0.1128000
H2        0.5654755      0.8311310      0.6295929       0.1128000
H3        0.9222107      0.8295898      0.6911545       0.1310000
H3        0.9469681      0.7790604      0.7012558       0.1310000
H3        0.9469681      0.8194885      0.7416840       0.1310000
Zn        0.6335220      0.7613068      0.0094528       0.6918000
Zn        0.8835373      0.5112915      0.2594681       0.6918000
Zn        0.6335220      0.5112915      0.2594681       0.6918000
Zn        0.8835373      0.7613068      0.0094528       0.6918000
Zn        0.5085297      0.6362839      0.2594681       0.6918000
Zn        0.7585449      0.8862991      0.0094528       0.6918000
Zn        0.7585449      0.5112915      0.1344452       0.6918000
Zn        0.5085297      0.7613068      0.3844604       0.6918000
Zn        0.7585449      0.6362839      0.0094528       0.6918000
Zn        0.5085297      0.8862991      0.2594681       0.6918000
Zn        0.5085297      0.7613068      0.1344452       0.6918000
Zn        0.7585449      0.5112915      0.3844604       0.6918000
C1        0.8235397      0.9949188      0.1944427       0.4291000
N1        0.8105469      0.5112915      0.1582870      -0.3879000
N1        0.8596954      0.5112915      0.2074356      -0.3879000
C2        0.8402176      0.5396729      0.1478119      -0.0839000
C2        0.8701706      0.5396729      0.1777573      -0.0839000
C3        0.8006592      0.9625397      0.2173233      -0.4526000
H2        0.8980331      0.5578003      0.1800003       0.1128000
H2        0.8379822      0.5578003      0.1199493       0.1128000
H3        0.7782898      0.9776230      0.2396851       0.1310000
H3        0.7828369      0.9426041      0.1946869       0.1310000
H3        0.8232956      0.9426041      0.2351379       0.1310000
C1        0.5769348      0.7412186      0.4410477       0.4291000
N1        0.5605316      0.7613068      0.4083023      -0.3879000
N1        0.6097107      0.7613068      0.4574509      -0.3879000
C2        0.5843353      0.7960815      0.4036942      -0.0839000
C2        0.6142883      0.7960815      0.4336395      -0.0839000
C3        0.5607452      0.7015915      0.4572372      -0.4526000
H2        0.6384048      0.8182602      0.4396362       0.1128000
H2        0.5783463      0.8182602      0.3795776       0.1128000
H3        0.5363846      0.7079773      0.4815903       0.1310000
H3        0.5465240      0.6832199      0.4310303       0.1310000
H3        0.5869522      0.6832199      0.4714890       0.1310000
C1        0.6935120      0.5276642      0.1944427       0.4291000
N1        0.7065048      0.5112915      0.1582870      -0.3879000
N1        0.6573563      0.5112915      0.2074356      -0.3879000
C2        0.6768341      0.9829102      0.1478119      -0.0839000
C2        0.6468811      0.9829102      0.1777573      -0.0839000
C3        0.7163925      0.5600433      0.2173233      -0.4526000
H2        0.6190186      0.9647827      0.1800003       0.1128000
H2        0.6790771      0.9647827      0.1199493       0.1128000
H3        0.7387619      0.5449600      0.2396851       0.1310000
H3        0.7342148      0.5799789      0.1946869       0.1310000
H3        0.6937561      0.5799789      0.2351379       0.1310000
C1        0.9401169      0.7412186      0.4410477       0.4291000
N1        0.9565201      0.7613068      0.4083023      -0.3879000
N1        0.9073410      0.7613068      0.4574509      -0.3879000
C2        0.9327164      0.7960815      0.4036942      -0.0839000
C2        0.9027634      0.7960815      0.4336395      -0.0839000
C3        0.9563065      0.7015915      0.4572372      -0.4526000
H2        0.8786469      0.8182602      0.4396362       0.1128000
H2        0.9387054      0.8182602      0.3795776       0.1128000
H3        0.9402084      0.6749573      0.4411392       0.1310000
H3        0.9907684      0.6997452      0.4512405       0.1310000
H3        0.9503174      0.6997452      0.4916992       0.1310000
C1        0.5692902      0.7552872      0.0702133       0.4291000
N1        0.5605316      0.7613068      0.1106415      -0.3879000
N1        0.6097107      0.7613068      0.0614624      -0.3879000
C2        0.5975800      0.7716904      0.1284561      -0.0839000
C2        0.6275253      0.7716904      0.0985107      -0.0839000
C3        0.5380478      0.7434616      0.0389786      -0.4526000
H2        0.6600571      0.7783279      0.1009674       0.1128000
H2        0.6000366      0.7783279      0.1610184       0.1128000
H3        0.5361099      0.7085342      0.0370407       0.1310000
H3        0.0068359      0.7563629      0.0481873       0.1310000
H3        0.5472641      0.7563629      0.5077667       0.1310000
C1        0.8209305      0.5228729      0.3218613       0.4291000
N1        0.8105469      0.5112915      0.3606262      -0.3879000
N1        0.8596954      0.5112915      0.3114777      -0.3879000
C2        0.8447342      0.9912338      0.3756180      -0.0839000
C2        0.8746872      0.9912338      0.3456650      -0.0839000
C3        0.7929153      0.5457535      0.2938461      -0.4526000
H2        0.9054337      0.9783936      0.3463135       0.1128000
H2        0.8453827      0.9783936      0.4063644       0.1128000
H3        0.7740860      0.5229950      0.2750168       0.1310000
H3        0.7713852      0.5659103      0.3127365       0.1310000
H3        0.8118057      0.5659103      0.2723083       0.1310000
C1        0.9435272      0.7776794      0.0744553       0.4291000
N1        0.9565201      0.7613068      0.1106415      -0.3879000
N1        0.9073410      0.7613068      0.0614624      -0.3879000
C2        0.9268188      0.7328949      0.1211166      -0.0839000
C2        0.8968964      0.7328949      0.0911636      -0.0839000
C3        0.9664078      0.8100586      0.0515671      -0.4526000
H2        0.8690033      0.7147675      0.0889206       0.1128000
H2        0.9290619      0.7147675      0.1489792       0.1128000
H3        0.9557190      0.8416367      0.0622635       0.1310000
H3        0.0007248      0.8066177      0.0577164       0.1310000
H3        0.9602661      0.8066177      0.0172882       0.1310000
C1        0.6935120      0.9949188      0.3244705       0.4291000
N1        0.7065048      0.5112915      0.3606262      -0.3879000
N1        0.6573563      0.5112915      0.3114777      -0.3879000
C2        0.6768341      0.5396729      0.3711014      -0.0839000
C2        0.6468811      0.5396729      0.3411484      -0.0839000
C3        0.7163925      0.9625397      0.3015823      -0.4526000
H2        0.6190186      0.5578003      0.3389053       0.1128000
H2        0.6790771      0.5578003      0.3989639       0.1128000
H3        0.7387619      0.9776230      0.2792511       0.1310000
H3        0.7342148      0.9426041      0.3242264       0.1310000
H3        0.6937561      0.9426041      0.2837982       0.1310000
C1        0.6961212      0.8236923      0.0210342       0.4291000
N1        0.7065048      0.8624649      0.0094528      -0.3879000
N1        0.6573563      0.8133087      0.0094528      -0.3879000
C2        0.6723175      0.8774490      0.4893951      -0.0839000
C2        0.6423645      0.8475037      0.4893951      -0.0839000
C3        0.7241364      0.7956772      0.0439224      -0.4526000
H2        0.6116180      0.8481445      0.4765549       0.1128000
H2        0.6716690      0.9082031      0.4765549       0.1128000
H3        0.7429657      0.7768478      0.0211563       0.1310000
H3        0.7456741      0.8145752      0.0640717       0.1310000
H3        0.7052460      0.7741470      0.0640717       0.1310000
C1        0.9461365      0.5737076      0.2478867       0.4291000
N1        0.9565201      0.6124802      0.2594681      -0.3879000
N1        0.9073410      0.5632935      0.2594681      -0.3879000
C2        0.9223022      0.6274338      0.2795258      -0.0839000
C2        0.8923798      0.5975189      0.2795258      -0.0839000
C3        0.9741516      0.5456619      0.2250061      -0.4526000
H2        0.8616333      0.5981293      0.2923355       0.1128000
H2        0.9216843      0.6581879      0.2923355       0.1128000
H3        0.9696350      0.5501785      0.1905670       0.1310000
H3        0.0073624      0.5529175      0.2334518       0.1310000
H3        0.9669342      0.5124588      0.2334518       0.1310000
C1        0.5285873      0.6928940      0.3278809       0.4291000
N1        0.5085297      0.7092667      0.3606262      -0.3879000
N1        0.5085297      0.6601181      0.3114777      -0.3879000
C2        0.9737549      0.6854630      0.3652344      -0.0839000
C2        0.9737549      0.6555099      0.3352814      -0.0839000
C3        0.5682449      0.7090836      0.3116913      -0.4526000
H2        0.9515762      0.6314316      0.3292923       0.1128000
H2        0.9515762      0.6914520      0.3893433       0.1128000
H3        0.5618210      0.7334137      0.2873306       0.1310000
H3        0.5866089      0.7233047      0.3378906       0.1310000
H3        0.5866089      0.6828842      0.2974396       0.1310000
C1        0.7421417      0.9462891      0.0744553       0.4291000
N1        0.7585449      0.9592819      0.1106415      -0.3879000
N1        0.7585449      0.9101028      0.0614624      -0.3879000
C2        0.7869263      0.9295807      0.1211166      -0.0839000
C2        0.7869263      0.8996582      0.0911636      -0.0839000
C3        0.7097931      0.9691772      0.0515671      -0.4526000
H2        0.8050461      0.8717728      0.0889206       0.1128000
H2        0.8050461      0.9318237      0.1489792       0.1128000
H3        0.6781845      0.9584885      0.0622635       0.1310000
H3        0.7132034      0.0034866      0.0577164       0.1310000
H3        0.7132034      0.9630356      0.0172882       0.1310000
C1        0.5735245      0.9462891      0.2430649       0.4291000
N1        0.5605316      0.9101028      0.2594681      -0.3879000
N1        0.6097107      0.9592819      0.2594681      -0.3879000
C2        0.5902328      0.8996582      0.2878571      -0.0839000
C2        0.6201859      0.9295807      0.2878571      -0.0839000
C3        0.5506439      0.9691772      0.2107239      -0.4526000
H2        0.6480484      0.9318237      0.3059769       0.1128000
H2        0.5879974      0.8717728      0.3059769       0.1128000
H3        0.5613327      0.9584885      0.1791153       0.1310000
H3        0.5163269      0.9630356      0.2141342       0.1310000
H3        0.5567856      0.0034866      0.2141342       0.1310000
C1        0.8235397      0.6962738      0.0258560       0.4291000
N1        0.8105469      0.6601181      0.0094528      -0.3879000
N1        0.8596954      0.7092667      0.0094528      -0.3879000
C2        0.8402176      0.6496429      0.4810715      -0.0839000
C2        0.8701706      0.6795959      0.4810715      -0.0839000
C3        0.8006592      0.7191620      0.0582047      -0.4526000
H2        0.8980331      0.6818390      0.4629517       0.1128000
H2        0.8379822      0.6217880      0.4629517       0.1128000
H3        0.7782898      0.7415237      0.0431213       0.1310000
H3        0.7828369      0.6965256      0.0781403       0.1310000
H3        0.8232956      0.7369766      0.0781403       0.1310000
C1        0.5145187      0.7005157      0.1986771       0.4291000
N1        0.5085297      0.7092667      0.1582870      -0.3879000
N1        0.5085297      0.6601181      0.2074356      -0.3879000
C2        0.9981461      0.6722565      0.1404648      -0.0839000
C2        0.9981461      0.6423035      0.1704178      -0.0839000
C3        0.5263748      0.7317886      0.2299500      -0.4526000
H2        0.9915085      0.6097412      0.1679611       0.1128000
H2        0.9915085      0.6697998      0.1079102       0.1128000
H3        0.5612717      0.7337189      0.2318878       0.1310000
H3        0.5134430      0.7629929      0.2207336       0.1310000