SimulationType                MonteCarlo
NumberOfCycles                100
NumberOfInitializationCycles  10
PrintEvery                    10

Forcefield                    Local
ChargeMethod                  None
Framework                     0
RemoveAtomNumberCodeFromLabel yes
FrameworkName                 output
UnitCells                     2 2 2
ExternalTemperature           77.0
ExternalPressure              1e5

Movies            yes
WriteMoviesEvery  10
FlexibleFramework yes
Component 0 MoleculeName               argon
            MoleculeDefinition         TraPPE
            TranslationProbability     0.5
            RegrowProbability          0.5
            SwapProbability            1.0
            CreateNumberOfMolecules    0

