SimulationType                MonteCarlo
NumberOfCycles                CYCLESEVERY
NumberOfInitializationCycles  INITCYCLES
PrintPropertiesEvery          100
PrintEvery                    100
RandomSeed                    RANDOMSEED
Forcefield                    Local
CutOff                        16.709 # sigma*4.9 # Tanaka et al.
ChargeMethod                  None
Framework                     0
RemoveAtomNumberCodeFromLabel yes
FrameworkName                 STRUCTURE
UnitCells                     SUPERCELL
ExternalTemperature           TEMPERATURE
ExternalPressure              PRESSURE

Movies             yes
WriteMoviesEvery   MOVIESEVERY
FlexibleFramework  yes
Component 0 MoleculeName               GUEST
            MoleculeDefinition         Local
            IdealGasRosenbluthWeight   1.0
            FugacityCoefficient        1.0
            TranslationProbability     1.0
            RegrowProbability          1.0
            SwapProbability            SWAPPROBABILITY
            WidomProbability           1.0
            CFSwapLambdaProbability    SWAPPROBABILITY
            CreateNumberOfMolecules    NMOLECULES
