SimulationType                MonteCarlo
NumberOfCycles                20000
NumberOfInitializationCycles  1000
PrintPropertiesEvery          100
PrintEvery                    100

Forcefield                    Local
ChargeMethod                  None
Framework                     0
RemoveAtomNumberCodeFromLabel yes
FrameworkName                 STRUCTURE
UnitCells                     SUPERCELL
ExternalTemperature           TEMPERATURE
ExternalPressure              PRESSURE

Movies            yes
WriteMoviesEvery  19999
FlexibleFramework yes
Component 0 MoleculeName               GUEST
            MoleculeDefinition         Local
            TranslationProbability     1.0
            RegrowProbability          1.0
            SwapProbability            1.0
            WidomProbability           1.0
            CreateNumberOfMolecules    0
