# FILENAME
shell mkdir logs
shell mkdir movs
log        logs/log.main
units      metal
boundary   p p p
atom_style full

bond_style     harmonic
angle_style    harmonic
dihedral_style fourier
improper_style none
pair_style     lj/cut/coul/long 14.0
kspace_style   ewald 1e-8
read_data      FILENAME.lmp
pair_modify    mix arithmetic shift yes tail no table 0
special_bonds  lj 0.0 0.0  0.00000 coul 0.0 0.0  0.00000

variable TK          equal   TEMPERATURE
variable Pbar        equal   PRESSURE
variable dt          equal       0.001
variable tdamp       equal     100*${dt}
variable NumberOfNVEMDCycles equal 100000
variable NumberOfNVTMDCycles equal 300000
variable ndump               equal 1000
variable RandomSeed          equal 1115111
variable Gnorm               equal 1.0e-4 #1e-6
# ------------------------ Equilibration Run -------------------------------
dump        traj_opti all custom ${ndump} movs/opti.lammpstrj element xs ys zs
dump_modify traj_opti element ELEMENTS first yes sort id
# start MD
dump        traj_all   all       custom ${ndump} movs/all.lammpstrj       element xs ys zs
dump_modify traj_all   element ELEMENTS first yes sort id
reset_timestep 0
# 
velocity    all scale ${TK}
fix         2 all langevin ${TK} ${TK} ${tdamp} ${RandomSeed}
fix         3 all nve
thermo      0
log logs/log.nve
run         ${NumberOfNVEMDCycles}
log logs/log.main append
unfix       2
unfix       3
fix         4 all nvt temp ${TK} ${TK} ${tdamp}
#tri ${Pbar} ${Pbar} ${tdamp}
thermo      100
log logs/log.nvt
run         ${NumberOfNPTMDCycles}
log logs/log.main append
unfix       4
#undump traj_frame
#undump traj_guest
undump traj_all
