SimulationType                MonteCarlo
NumberOfCycles                1000
NumberOfInitializationCycles  100
PrintEvery                    100

Forcefield                    Local
ChargeMethod                  None
Framework                     0
RemoveAtomNumberCodeFromLabel yes
FrameworkName                 test_tmp
UnitCells                     2 2 2
ExternalTemperature           77
ExternalPressure              1.05

Movies            yes
WriteMoviesEvery  999
FlexibleFramework yes
Component 0 MoleculeName               argon
            MoleculeDefinition         Local
            TranslationProbability     1.0
            RegrowProbability          1.0
            SwapProbability            1.0
            CreateNumberOfMolecules    0

