#
units          metal
boundary       p p p
atom_style     full
bond_style     harmonic
angle_style    harmonic
dihedral_style fourier 
improper_style cvff
pair_style     lj/cut/coul/long 12.0
kspace_style   ewald 1e-8
read_data      sod_mim_adsorption_argon.data
pair_modify    mix arithmetic shift yes tail no table 0
special_bonds  lj 0.0 0.0  0.00000 coul 0.0 0.0  0.00000
#   1     65.3700027  # Zn
#   2     12.0107002  # C1
#   3     14.0067396  # N1
#   4     12.0107002  # C2
#   5     12.0107002  # C3
#   6      1.0079401  # H2
#   7      1.0079401  # H3
#   8     39.9480019  # Ar
#
variable    TK equal   77.0
variable    RandomSeed equal 123456789
#
dump        traj_all   all     custom 100  all.lammpstrj       element xs ys zs
dump_modify traj_all   element Zn C N C C H H Ar  first yes sort id 
dump        traj all xyz 10 traj.xyz
dump_modify traj element Zn C N C C H H Ar
#
velocity    all create ${TK} ${RandomSeed}
variable    dt     equal 0.0005
variable    tdamp  equal 100*${dt}
fix         2 all langevin ${TK} ${TK} ${tdamp} ${RandomSeed}
fix         3 all nve
thermo      100
run         1000
undump      traj_all
undump      traj
