#
units          metal
boundary       p p p
atom_style     full
bond_style     harmonic
angle_style    harmonic
dihedral_style fourier 
improper_style cvff
pair_style     lj/cut/coul/long 12.0
kspace_style   ewald 1e-8
read_data      SOD_ZIF_TOBUNPOROUS_Optimized.data
pair_modify    mix arithmetic shift yes tail no table 0
special_bonds  lj 0.0 0.0  0.00000 coul 0.0 0.0  0.00000
set type 1 charge +0.6918 # Zn
set type 2 charge +0.2045 # C1
set type 3 charge -0.3879 # N1 
set type 4 charge -0.0839 # C2
set type 5 charge +0.1310 # H1 
set type 6 charge +0.1310 # H2
#
variable    TK equal 300.0
variable    RandomSeed equal 123456789
#
dump        traj_all   all     custom 100  all.lammpstrj       element xs ys zs
dump_modify traj_all   element Zn C N C H H  first yes sort id 
dump        traj all xyz 10 traj.xyz
dump_modify traj element Zn C N C H H
#
velocity    all create ${TK} ${RandomSeed}
variable    dt     equal 0.0005
variable    tdamp  equal 100*${dt}
fix         2 all langevin ${TK} ${TK} ${tdamp} ${RandomSeed}
fix         3 all nve
thermo      100
run         1000
undump      traj_all
undump      traj
